qbf_easy_train/easy_5636_UNSAT.qdimacs
p cnf 40 115
a 17 29 22 0
e 1 2 3 4 5 6 7 8 9 10 11 12 13 14 15 16 18 19 20 21 23 24 25 26 27 28 30 31 32 33 34 35 36 37 38 39 40 0
1 -2 -3 0
-1 2 -3 0
1 2 3 0
-1 -2 3 0
7 -5 0
7 6 0
5 -6 -7 0
-8 -4 0
-8 -7 0
4 7 8 0
-3 -8 -9 0
3 8 -9 0
-3 8 9 0
3 -8 9 0
-5 10 -11 0
5 -10 -11 0
-5 -10 11 0
5 10 11 0
-1 5 -12 0
1 -5 -12 0
-1 -5 12 0
1 5 12 0
-13 -11 0
-13 -12 0
11 12 13 0
14 -1 0
14 11 0
1 -11 -14 0
-15 7 0
-15 5 0
-7 -5 15 0
16 6 0
16 7 0
-6 -7 -16 0
17 -16 0
17 12 0
16 -12 -17 0
-18 -15 0
-18 -17 0
15 17 18 0
19 -14 0
19 18 0
14 -18 -19 0
-13 19 -20 0
13 -19 -20 0
-13 -19 20 0
13 19 20 0
9 -20 -21 0
-9 20 -21 0
9 20 21 0
-9 -20 21 0
-22 11 0
-22 2 0
-11 -2 22 0
23 -22 0
23 -12 0
22 12 -23 0
-25 24 0
-25 16 0
-24 -16 25 0
-22 -4 -26 0
22 4 -26 0
-22 4 26 0
22 -4 26 0
-27 12 0
-27 -26 0
-12 26 27 0
-28 3 -29 0
28 -3 -29 0
-28 -3 29 0
28 3 29 0
-30 -27 0
-30 29 0
27 -29 30 0
-31 -25 0
-31 -30 0
25 30 31 0
-32 23 0
-32 31 0
-23 -31 32 0
-1 -33 0
1 -33 0
-34 1 0
-34 6 0
-1 -6 34 0
35 -34 0
35 -4 0
34 4 -35 0
-36 33 0
-36 35 0
-33 -35 36 0
-37 -7 0
-37 -4 0
7 4 37 0
38 36 0
38 -37 0
-36 37 -38 0
39 32 0
39 -38 0
-32 38 -39 0
-21 39 -40 0
21 -39 -40 0
-21 -39 40 0
21 39 40 0
4 13 24 -26 -2 29 -36 -32 0
3 23 11 0
17 29 -33 20 36 -24 -39 -10 0
18 19 31 8 0
-20 37 3 0
21 33 -22 34 0
18 -26 21 24 0
9 -26 33 -28 0
14 -21 38 15 19 6 0
8 -32 -1 -28 -23 0
40 0
