sat_easy_train/easy_5636_UNSAT.dimacs
p cnf 112 369
3 -4 -5 0
-3 4 -5 0
3 4 5 0
-3 -4 5 0
6 2 0
6 5 0
-2 -5 -6 0
-8 -6 0
-8 7 0
6 -7 8 0
-9 1 0
-9 -8 0
-1 8 9 0
12 -10 0
12 11 0
10 -11 -12 0
13 9 0
13 12 0
-9 -12 -13 0
4 -10 -14 0
-4 10 -14 0
4 10 14 0
-4 -10 14 0
-15 -2 0
-15 -14 0
2 14 15 0
17 5 0
17 -16 0
-5 16 -17 0
18 15 0
18 17 0
-15 -17 -18 0
-20 -19 0
-20 -10 0
19 10 20 0
21 18 0
21 20 0
-18 -20 -21 0
13 -21 -22 0
-13 21 -22 0
13 21 22 0
-13 -21 22 0
-23 -7 0
-23 8 0
7 -8 23 0
-25 -11 0
-25 14 0
11 -14 25 0
-4 25 -26 0
4 -25 -26 0
-4 -25 26 0
4 25 26 0
27 24 0
27 -26 0
-24 26 -27 0
30 -28 0
30 -29 0
28 29 -30 0
-32 -12 0
-32 31 0
12 -31 32 0
-33 -5 0
-33 -24 0
5 24 33 0
-34 31 0
-34 -33 0
-31 33 34 0
-32 -34 -35 0
32 34 -35 0
-32 34 35 0
32 -34 35 0
-36 35 0
-36 7 0
-35 -7 36 0
30 -36 -37 0
-30 36 -37 0
30 36 37 0
-30 -36 37 0
38 27 0
38 37 0
-27 -37 -38 0
23 -38 -39 0
-23 38 -39 0
23 38 39 0
-23 -38 39 0
-40 22 0
-40 -39 0
-22 39 40 0
43 -41 0
43 42 0
41 -42 -43 0
44 -24 0
44 43 0
24 -43 -44 0
5 8 -45 0
-5 -8 -45 0
5 -8 45 0
-5 8 45 0
44 -45 -46 0
-44 45 -46 0
44 45 46 0
-44 -45 46 0
40 46 -47 0
-40 -46 -47 0
40 -46 47 0
-40 46 47 0
-48 42 0
-48 -42 0
-14 24 -49 0
14 -24 -49 0
-14 -24 49 0
14 24 49 0
50 49 0
50 -31 0
-49 31 -50 0
51 48 0
51 50 0
-48 -50 -51 0
-14 16 -52 0
14 -16 -52 0
-14 -16 52 0
14 16 52 0
-53 51 0
-53 52 0
-51 -52 53 0
-47 -53 -54 0
47 53 -54 0
-47 53 54 0
47 -53 54 0
-30 31 -55 0
30 -31 -55 0
-30 -31 55 0
30 31 55 0
56 -30 0
56 -3 0
30 3 -56 0
57 -34 0
57 56 0
34 -56 -57 0
-58 26 0
-58 49 0
-26 -49 58 0
-59 -29 0
-59 42 0
29 -42 59 0
-60 59 0
-60 2 0
-59 -2 60 0
61 60 0
61 -7 0
-60 7 -61 0
-62 58 0
-62 61 0
-58 -61 62 0
-63 -34 0
-63 -62 0
34 62 63 0
-57 -63 -64 0
57 63 -64 0
-57 63 64 0
57 -63 64 0
4 -61 -65 0
-4 61 -65 0
4 61 65 0
-4 -61 65 0
66 64 0
66 -65 0
-64 65 -66 0
-67 -59 0
-67 43 0
59 -43 67 0
68 66 0
68 67 0
-66 -67 -68 0
69 -55 0
69 68 0
55 -68 -69 0
-1 70 -71 0
1 -70 -71 0
-1 -70 71 0
1 70 71 0
72 60 0
72 -70 0
-60 70 -72 0
-73 71 0
-73 -72 0
-71 72 73 0
7 31 -74 0
-7 -31 -74 0
7 -31 74 0
-7 31 74 0
-75 73 0
-75 -74 0
-73 74 75 0
-5 8 -76 0
5 -8 -76 0
-5 -8 76 0
5 8 76 0
-76 -33 -77 0
76 33 -77 0
-76 33 77 0
76 -33 77 0
78 50 0
78 11 0
-50 -11 -78 0
79 -43 0
79 78 0
43 -78 -79 0
80 -4 0
80 -61 0
4 61 -80 0
-81 -9 0
-81 80 0
9 -80 81 0
79 -81 -82 0
-79 81 -82 0
79 81 82 0
-79 -81 82 0
-83 -43 0
-83 61 0
43 -61 83 0
84 82 0
84 -83 0
-82 83 -84 0
-56 49 -85 0
56 -49 -85 0
-56 -49 85 0
56 49 85 0
-86 50 0
-86 -42 0
-50 42 86 0
85 86 -87 0
-85 -86 -87 0
85 -86 87 0
-85 86 87 0
88 -84 0
88 -87 0
84 87 -88 0
-77 -88 -89 0
77 88 -89 0
-77 88 89 0
77 -88 89 0
-75 89 -90 0
75 -89 -90 0
-75 -89 90 0
75 89 90 0
-91 71 0
-91 -44 0
-71 44 91 0
-92 59 0
-92 45 0
-59 -45 92 0
-92 -7 -93 0
92 7 -93 0
-92 7 93 0
92 -7 93 0
-94 91 0
-94 -93 0
-91 93 94 0
-50 41 -95 0
50 -41 -95 0
-50 -41 95 0
50 41 95 0
-96 6 0
-96 26 0
-6 -26 96 0
97 70 0
97 4 0
-70 -4 -97 0
-98 -16 0
-98 97 0
16 -97 98 0
-96 98 -99 0
96 -98 -99 0
-96 -98 99 0
96 98 99 0
-59 5 -100 0
59 -5 -100 0
-59 -5 100 0
59 5 100 0
-100 37 -101 0
100 -37 -101 0
-100 -37 101 0
100 37 101 0
-102 99 0
-102 -101 0
-99 101 102 0
103 -95 0
103 -102 0
95 102 -103 0
-104 94 0
-104 103 0
-94 -103 104 0
105 -90 0
105 104 0
90 -104 -105 0
69 105 -106 0
-69 -105 -106 0
69 -105 106 0
-69 105 106 0
107 -54 0
107 -106 0
54 106 -107 0
-44 -61 -108 0
44 61 -108 0
-44 61 108 0
44 -61 108 0
109 -108 0
109 62 0
108 -62 -109 0
3 41 -110 0
-3 -41 -110 0
3 -41 110 0
-3 41 110 0
111 109 0
111 110 0
-109 -110 -111 0
112 107 0
112 111 0
-107 -111 -112 0
42 23 -74 0
49 108 0
-11 -44 92 -23 64 0
23 -1 0
32 44 -12 0
86 -1 90 -93 -107 -30 0
2 91 34 43 90 0
37 90 0
-2 -63 -5 -66 0
78 12 95 0
89 19 -99 54 -45 0
103 51 91 102 -104 -45 0
-2 -12 -98 100 0
29 105 0
111 -50 0
68 102 -20 88 0
77 47 0
84 28 26 -85 -1 0
-95 -100 -84 66 0
73 -51 82 -68 71 0
95 55 -43 8 0
-98 -81 -91 0
52 -55 -19 40 0
108 59 0
75 -26 -54 0
-42 72 83 -57 -66 0
105 -86 -24 89 -76 -74 0
104 39 0
-46 -68 -111 -107 0
-62 72 95 58 112 0
99 76 80 2 -112 0
-45 -81 0
-8 72 -84 -99 -52 55 0
-74 -76 -17 70 0
57 -64 0
-18 61 88 -34 -29 0
19 -51 0
-19 -41 -34 47 0
-74 49 0
25 -43 -13 0
36 -72 11 -58 -64 0
57 5 100 13 -75 49 0
-111 4 108 -21 41 0
65 53 35 23 -89 -10 0
23 68 24 0
34 -66 57 78 -13 16 0
-73 -24 0
56 92 6 -83 21 14 0
112 0
